c A SAT instance generated from a 3-CNF formula that had 20 clauses and 10 variables
p cnf 10 20
-4 -6 -5 0
5 -3 -1 0
-7 -10 -9 0
10 4 -6 0
-8 1 -10 0
9 7 10 0
5 -6 2 0
-4 -5 2 0
-8 10 4 0
1 -2 -10 0
-1 9 -2 0
5 3 -10 0
-5 10 2 0
4 7 -8 0
6 3 -4 0
-8 5 1 0
4 -10 -1 0
-3 -2 -4 0
-10 -3 7 0
-3 -10 -8 0
%
0

6 40 4 19 61 55 37 72 16 77
